Name:		CBMix14
Optimal value:	-1
#Vehicles:	-1
Capacity:	1642
Depot Node:	11
#Nodes:		94
#Edges:		0
#Arcs:		332
#Required N:	93
#Required E:	0
#Required A:	0

ReN.	DEMAND	S. COST
N1	320	320
N2	494	494
N3	190	190
N4	118	118
N5	318	318
N6	468	468
N7	330	330
N8	335	335
N9	353	353
N10	100	100
N12	433	433
N13	186	186
N14	259	259
N15	81	81
N16	233	233
N17	51	51
N18	488	488
N19	404	404
N20	74	74
N21	133	133
N22	279	279
N23	235	235
N24	303	303
N25	421	421
N26	232	232
N27	193	193
N28	465	465
N29	377	377
N30	174	174
N31	178	178
N32	231	231
N33	316	316
N34	276	276
N35	465	465
N36	210	210
N37	294	294
N38	494	494
N39	387	387
N40	123	123
N41	119	119
N42	232	232
N43	436	436
N44	322	322
N45	96	96
N46	447	447
N47	53	53
N48	296	296
N49	196	196
N50	302	302
N51	166	166
N52	156	156
N53	386	386
N54	479	479
N55	89	89
N56	191	191
N57	349	349
N58	241	241
N59	431	431
N60	126	126
N61	92	92
N62	361	361
N63	179	179
N64	233	233
N65	476	476
N66	209	209
N67	259	259
N68	295	295
N69	295	295
N70	261	261
N71	408	408
N72	496	496
N73	349	349
N74	113	113
N75	133	133
N76	397	397
N77	330	330
N78	300	300
N79	304	304
N80	348	348
N81	364	364
N82	90	90
N83	143	143
N84	257	257
N85	66	66
N86	409	409
N87	74	74
N88	459	459
N89	183	183
N90	499	499
N91	355	355
N92	66	66
N93	487	487
N94	341	341

ReE.	From N.	To N.	T. COST	DEMAND	S. COST

EDGE	FROM N.	TO N.	T. COST

ReA.	FROM N.	TO N.	T. COST	DEMAND	S. COST

ARC	FROM N.	TO N.	T. COST
NrA1	1	2	36
NrA2	1	10	39
NrA3	2	1	36
NrA4	2	3	39
NrA5	2	11	36
NrA6	3	2	39
NrA7	3	4	36
NrA8	3	12	40
NrA9	4	3	36
NrA10	4	5	36
NrA11	4	13	35
NrA12	5	4	36
NrA13	5	6	39
NrA14	5	15	38
NrA15	6	5	39
NrA16	6	7	39
NrA17	6	16	34
NrA18	7	6	39
NrA19	7	8	37
NrA20	7	17	41
NrA21	8	7	37
NrA22	8	9	37
NrA23	8	18	41
NrA24	9	8	37
NrA25	9	20	40
NrA26	10	1	39
NrA27	10	11	36
NrA28	10	21	39
NrA29	11	2	36
NrA30	11	10	36
NrA31	11	12	37
NrA32	11	22	42
NrA33	12	3	40
NrA34	12	11	37
NrA35	12	13	36
NrA36	12	23	35
NrA37	13	4	35
NrA38	13	12	36
NrA39	13	14	20
NrA40	13	24	45
NrA41	14	13	20
NrA42	14	15	20
NrA43	14	25	40
NrA44	15	5	38
NrA45	15	14	20
NrA46	15	16	36
NrA47	15	26	36
NrA48	16	6	34
NrA49	16	15	36
NrA50	16	17	39
NrA51	16	27	40
NrA52	17	7	41
NrA53	17	16	39
NrA54	17	18	39
NrA55	17	28	41
NrA56	18	8	41
NrA57	18	17	39
NrA58	18	19	18
NrA59	18	29	34
NrA60	19	18	18
NrA61	19	20	21
NrA62	19	30	39
NrA63	20	9	40
NrA64	20	19	21
NrA65	20	31	37
NrA66	21	10	39
NrA67	21	22	39
NrA68	21	32	43
NrA69	22	11	42
NrA70	22	21	39
NrA71	22	23	36
NrA72	22	33	34
NrA73	23	12	35
NrA74	23	22	36
NrA75	23	24	37
NrA76	23	34	39
NrA77	24	13	45
NrA78	24	23	37
NrA79	24	25	20
NrA80	24	35	38
NrA81	25	14	40
NrA82	25	24	20
NrA83	25	26	21
NrA84	26	15	36
NrA85	26	25	21
NrA86	26	27	35
NrA87	26	37	41
NrA88	27	16	40
NrA89	27	26	35
NrA90	27	28	39
NrA91	27	39	39
NrA92	27	41	58
NrA93	28	17	41
NrA94	28	27	39
NrA95	28	29	39
NrA96	28	41	38
NrA97	29	18	34
NrA98	29	28	39
NrA99	29	30	20
NrA100	29	42	39
NrA101	30	19	39
NrA102	30	29	20
NrA103	30	31	15
NrA104	31	20	37
NrA105	31	30	15
NrA106	31	43	35
NrA107	32	21	43
NrA108	32	33	37
NrA109	32	52	40
NrA110	33	22	34
NrA111	33	32	37
NrA112	33	34	40
NrA113	33	53	42
NrA114	34	23	39
NrA115	34	33	40
NrA116	34	35	38
NrA117	34	54	38
NrA118	35	24	38
NrA119	35	34	38
NrA120	35	36	23
NrA121	35	44	18
NrA122	36	35	23
NrA123	36	37	18
NrA124	36	45	18
NrA125	37	26	41
NrA126	37	36	18
NrA127	37	38	18
NrA128	37	46	18
NrA129	38	37	18
NrA130	38	39	21
NrA131	38	47	21
NrA132	39	27	39
NrA133	39	38	21
NrA134	39	40	19
NrA135	39	48	19
NrA136	40	39	19
NrA137	40	41	20
NrA138	40	49	17
NrA139	41	27	58
NrA140	41	28	38
NrA141	41	40	20
NrA142	41	42	39
NrA143	41	50	21
NrA144	42	29	39
NrA145	42	41	39
NrA146	42	43	38
NrA147	42	51	19
NrA148	43	31	35
NrA149	43	42	38
NrA150	43	64	41
NrA151	44	35	18
NrA152	44	45	21
NrA153	44	55	15
NrA154	45	36	18
NrA155	45	44	21
NrA156	45	46	19
NrA157	45	56	20
NrA158	46	37	18
NrA159	46	45	19
NrA160	46	47	19
NrA161	46	57	19
NrA162	47	38	21
NrA163	47	46	19
NrA164	47	48	19
NrA165	47	58	21
NrA166	48	39	19
NrA167	48	47	19
NrA168	48	49	18
NrA169	48	59	20
NrA170	49	40	17
NrA171	49	48	18
NrA172	49	50	21
NrA173	49	60	19
NrA174	50	41	21
NrA175	50	49	21
NrA176	50	51	36
NrA177	50	61	19
NrA178	51	42	19
NrA179	51	50	36
NrA180	51	62	16
NrA181	52	32	40
NrA182	52	53	35
NrA183	52	72	33
NrA184	53	33	42
NrA185	53	52	35
NrA186	53	54	36
NrA187	53	73	36
NrA188	54	34	38
NrA189	54	53	36
NrA190	54	55	41
NrA191	54	74	33
NrA192	55	44	15
NrA193	55	54	41
NrA194	55	56	18
NrA195	55	65	22
NrA196	56	45	20
NrA197	56	55	18
NrA198	56	57	19
NrA199	56	66	17
NrA200	57	46	19
NrA201	57	56	19
NrA202	57	58	19
NrA203	57	67	21
NrA204	58	47	21
NrA205	58	57	19
NrA206	58	59	17
NrA207	58	68	16
NrA208	59	48	20
NrA209	59	58	17
NrA210	59	60	19
NrA211	59	69	20
NrA212	60	49	19
NrA213	60	59	19
NrA214	60	61	21
NrA215	60	70	13
NrA216	61	50	19
NrA217	61	60	21
NrA218	61	62	36
NrA219	61	71	15
NrA220	62	51	16
NrA221	62	61	36
NrA222	62	63	20
NrA223	62	81	55
NrA224	62	82	40
NrA225	63	62	20
NrA226	63	64	18
NrA227	63	83	39
NrA228	64	43	41
NrA229	64	63	18
NrA230	64	84	40
NrA231	65	55	22
NrA232	65	66	17
NrA233	65	75	22
NrA234	66	56	17
NrA235	66	65	17
NrA236	66	67	24
NrA237	66	76	23
NrA238	67	57	21
NrA239	67	66	24
NrA240	67	68	16
NrA241	67	77	20
NrA242	68	58	16
NrA243	68	67	16
NrA244	68	69	19
NrA245	68	78	22
NrA246	69	59	20
NrA247	69	68	19
NrA248	69	70	20
NrA249	69	79	16
NrA250	70	60	13
NrA251	70	69	20
NrA252	70	71	21
NrA253	70	80	24
NrA254	71	61	15
NrA255	71	70	21
NrA256	71	81	21
NrA257	72	52	33
NrA258	72	73	39
NrA259	72	85	36
NrA260	73	53	36
NrA261	73	72	39
NrA262	73	74	37
NrA263	73	86	35
NrA264	74	54	33
NrA265	74	73	37
NrA266	74	75	39
NrA267	74	87	42
NrA268	75	65	22
NrA269	75	74	39
NrA270	75	76	22
NrA271	75	88	36
NrA272	76	66	23
NrA273	76	75	22
NrA274	76	77	14
NrA275	77	67	20
NrA276	77	76	14
NrA277	77	78	20
NrA278	77	89	33
NrA279	78	68	22
NrA280	78	77	20
NrA281	78	79	20
NrA282	79	69	16
NrA283	79	78	20
NrA284	79	80	20
NrA285	79	90	39
NrA286	80	70	24
NrA287	80	79	20
NrA288	80	81	20
NrA289	80	91	38
NrA290	81	62	55
NrA291	81	71	21
NrA292	81	80	20
NrA293	81	82	36
NrA294	81	92	41
NrA295	82	62	40
NrA296	82	81	36
NrA297	82	83	20
NrA298	82	93	37
NrA299	83	63	39
NrA300	83	82	20
NrA301	83	84	18
NrA302	84	64	40
NrA303	84	83	18
NrA304	84	94	35
NrA305	85	72	36
NrA306	85	86	35
NrA307	86	73	35
NrA308	86	85	35
NrA309	86	87	40
NrA310	87	74	42
NrA311	87	86	40
NrA312	87	88	38
NrA313	88	75	36
NrA314	88	87	38
NrA315	88	89	39
NrA316	89	77	33
NrA317	89	88	39
NrA318	89	90	38
NrA319	90	79	39
NrA320	90	89	38
NrA321	90	91	22
NrA322	91	80	38
NrA323	91	90	22
NrA324	91	92	14
NrA325	92	81	41
NrA326	92	91	14
NrA327	92	93	41
NrA328	93	82	37
NrA329	93	92	41
NrA330	93	94	39
NrA331	94	84	35
NrA332	94	93	39

